TOUR_SECTION
56
55
85
187
184
101
70
171
78
155
87
92
10
125
58
48
150
54
49
99
100
15
44
19
185
5
122
137
190
160
130
37
163
45
35
6
154
113
46
9
142
192
110
20
74
172
117
11
144
161
2
111
135
67
89
115
39
174
176
139
76
106
151
1
196
77
120
183
79
188
29
162
71
126
114
108
180
141
93
112
17
61
81
50
109
3
148
34
16
121
4
165
158
13
131
181
7
116
40
25
75
159
197
73
31
153
95
38
41
178
52
21
59
28
33
157
179
68
36
169
22
166
124
66
83
132
167
103
102
127
147
105
97
134
23
69
84
62
104
94
193
53
80
195
138
91
14
60
27
57
51
12
18
194
119
200
90
123
177
133
24
26
42
164
107
136
118
191
32
140
175
43
143
199
30
47
189
146
64
182
173
82
98
8
88
128
145
149
156
65
86
186
198
168
72
96
63
129
152
170
-1
EOF